rehearsal = [[1,1,0,1,1,1,1,1,1,0], [0,1,1,1,1,1,1,0,0,1], [0,0,0,0,0,1,0,1,1,1], [1,1,1,1,1,1,1,0,1,1], [0,1,1,0,1,1,1,0,1,1], [1,0,0,1,1,0,1,1,0,1], [1,1,0,1,0,1,1,1,1,1], [1,1,0,0,1,1,1,0,1,1], [1,1,0,1,1,0,0,0,1,0], [0,0,1,0,1,1,0,0,1,1]];
permutations = [8,3,6,10,9,5,7,2,1,4];